--- Job #v1_PAMP Model1(1).gms Start 11/27/23 13:55:22 44.4.0 06604687 WEX-WEI x86 64bit/MS Windows
--- Applying:
    Q:\GAMS\44\gmsprmNT.txt
    C:\Users\redhawc\Documents\GAMS\gamsconfig.yaml
--- GAMS Parameters defined
    Input "C:\Users\redhawc\Desktop\EDI_BUSANA\mathematic\GAMS_CODE\PAMP\#v1_PAMP Model1(1).gms"
    PageSize 0
    ScrDir C:\Users\redhawc\Desktop\EDI_BUSANA\mathematic\GAMS_CODE\PAMP\225a\
    SysDir Q:\GAMS\44\
    LogOption 3
    ErrMsg 1
    ErrorLog 99
    IDE 1
    LstTitleLeftAligned 1
Licensee: Course License                                 S230704|0002AO-GEN
          University of Edinburgh, Business School                  DCE2899
          C:\Users\redhawc\Documents\GAMS\gamslice.txt
          License Admin: Douglas Alem, douglas.alem@ed.ac.uk               
          Course license for use within the course and related course work
Processor information: 1 socket(s), 8 core(s), and 16 thread(s) available
GAMS 44.4.0   Copyright (C) 1987-2023 GAMS Development. All rights reserved
--- Starting compilation
--- #v1_PAMP Model1(1).gms(471) 3 Mb
--- Starting execution: elapsed 0:00:00.031
--- #v1_PAMP Model1(1).gms(422) 4 Mb
--- Generating MIP model crop_profit_model
--- #v1_PAMP Model1(1).gms(468) 4 Mb
---   1,098 rows  892 columns  4,511 non-zeroes
---   99 discrete-columns
--- Range statistics (absolute non-zero finite values)
--- RHS       [min, max] : [ 9.800E+02, 9.536E+07] - Zero values observed as well
--- Bound     [min, max] : [ 1.000E+00, 1.000E+00] - Zero values observed as well
--- Matrix    [min, max] : [ 1.000E-06, 1.000E+09]
--- Executing CPLEX (Solvelink=2): elapsed 0:00:00.063

IBM ILOG CPLEX   44.4.0 06604687 Sep 19, 2023          WEI x86 64bit/MS Window

--- GAMS/CPLEX licensed for continuous and discrete problems.
--- GMO setup time: 0.00s
--- Space for names approximately 0.08 Mb
--- Use option 'names no' to turn use of names off
--- GMO memory 0.73 Mb (peak 0.73 Mb)
--- Dictionary memory 0.00 Mb
--- Cplex 22.1.1.0 link memory 0.03 Mb (peak 0.17 Mb)
--- Starting Cplex

Version identifier: 22.1.1.0 | 2022-11-27 | 9160aff4d
CPXPARAM_Advance                                 0
CPXPARAM_Threads                                 1
CPXPARAM_MIP_Display                             4
CPXPARAM_MIP_Pool_Capacity                       0
CPXPARAM_MIP_Tolerances_AbsMIPGap                0
Generic callback                                 0x50
Tried aggregator 2 times.
MIP Presolve eliminated 900 rows and 450 columns.
MIP Presolve modified 198 coefficients.
Aggregator did 9 substitutions.
Reduced MIP has 188 rows, 433 columns, and 1119 nonzeros.
Reduced MIP has 90 binaries, 0 generals, 0 SOSs, and 0 indicators.
Presolve time = 0.02 sec. (1.86 ticks)
Found incumbent of value 6.2258474e+12 after 0.02 sec. (2.69 ticks)
Probing time = 0.00 sec. (0.05 ticks)
Tried aggregator 1 time.
Detecting symmetries...
MIP Presolve eliminated 22 rows and 22 columns.
MIP Presolve modified 17 coefficients.
Reduced MIP has 166 rows, 411 columns, and 1075 nonzeros.
Reduced MIP has 79 binaries, 0 generals, 0 SOSs, and 0 indicators.
Presolve time = 0.00 sec. (0.59 ticks)
Probing time = 0.00 sec. (0.04 ticks)
MIP emphasis: balance optimality and feasibility.
MIP search method: dynamic search.
Parallel mode: none, using 1 thread.
Tried aggregator 1 time.
LP Presolve eliminated 18 rows and 34 columns.
Aggregator did 17 substitutions.
Reduced LP has 131 rows, 360 columns, and 934 nonzeros.
Presolve time = 0.00 sec. (0.26 ticks)

Iteration log . . .
Iteration:     1   Scaled dual infeas =       2623000.000000
Iteration:    63   Dual objective     = 58797973341833.750000
Markowitz threshold set to 0.1
Iteration:   116   Dual objective     = 44436782415450.992188
Iteration:   118   Dual objective     = 42014918182399.546875
Initializing dual steep norms . . .
Root relaxation solution time = 0.00 sec. (0.75 ticks)

        Nodes                                         Cuts/
   Node  Left     Objective  IInf  Best Integer    Best Bound    ItCnt     Gap

*     0+    0                       3.86843e+13   5.88801e+13            52.21%
Found incumbent of value 3.8684317e+13 after 0.02 sec. (16.31 ticks)
      0     0        cutoff         3.86843e+13                    124     --- 

Root node processing (before b&c):
  Real time             =    0.02 sec. (16.33 ticks)
Sequential b&c:
  Real time             =    0.00 sec. (0.00 ticks)
                          ------------
Total (root+branch&cut) =    0.02 sec. (16.33 ticks)

--- MIP status (101): integer optimal solution.
--- Cplex Time: 0.02sec (det. 16.33 ticks)

--- Returning a primal only solution to GAMS (marginals all set to NA).
--- Fixing integer variables and solving final LP...

Version identifier: 22.1.1.0 | 2022-11-27 | 9160aff4d
CPXPARAM_Advance                                 2
CPXPARAM_Threads                                 1
CPXPARAM_MIP_Display                             4
CPXPARAM_MIP_Pool_Capacity                       0
CPXPARAM_MIP_Tolerances_AbsMIPGap                0
Tried aggregator 1 time.
LP Presolve eliminated 933 rows and 268 columns.
Reduced LP has 164 rows, 624 columns, and 1500 nonzeros.
Presolve time = 0.00 sec. (1.03 ticks)

Iteration log . . .
Iteration:     1   Dual objective     = 57117197865608.656250

--- Fixed MIP status (1): optimal.
--- Cplex Time: 0.00sec (det. 1.66 ticks)


Proven optimal solution
MIP Solution:  38684317315891.726562    (124 iterations, 0 nodes)
Final Solve:   38684317315891.718750    (62 iterations)

Best possible: 38684317315891.726562
Absolute gap:            0.007812
Relative gap:            0.000000

--- Reading solution for model crop_profit_model
--- Executing after solve: elapsed 0:00:00.179
--- #v1_PAMP Model1(1).gms(469) 4 Mb
*** Status: Normal completion
--- Job #v1_PAMP Model1(1).gms Stop 11/27/23 13:55:23 elapsed 0:00:00.179
